N = 11;
H = 5;
T = 2;

avail = array3d(1..N, 1..H, 1..T, [10, 0, 10, 3, 1, 1, 2, 4, 10, 5, 2, 2, 4, 10, 9, 4, 4, 9, 9, 7, 4, 4, 2, 6, 4, 8, 8, 5, 6, 8, 10, 10, 9, 10, 1, 3, 2, 4, 6, 4, 0, 3, 4, 1, 2, 7, 7, 9, 5, 6, 7, 3, 9, 5, 2, 3, 5, 6, 6, 3, 5, 2, 4, 3, 4, 4, 1, 2, 3, 10, 6, 2, 1, 5, 4, 9, 3, 2, 7, 4, 5, 6, 9, 6, 0, 2, 6, 10, 1, 1, 8, 4, 6, 3, 5, 1, 6, 8, 2, 8, 9, 5, 9, 10, 2, 0, 2, 3, 2, 6]);

r = array2d(1..H, 1..T, [6, 3, 0, 2, 0, 4, 1, 2, 3, 2]);
